NAME: random problem
TYPE: MTSP
COMMENT: MTSP problem for MRS UAV summer school
DIMENSION: 20
NUMBER_OF_ROBOTS: 2
START_TARGET_INDEXES: 1, 2
NEIGHBORHOOD_RADIUS: 2
EDGE_WEIGHT_TYPE: EUC_2D
NODE_COORD_SECTION
1 15.0 -21.0
2 -5.0 -25.0
3 -14.9 -8.4
4 -17.1 11.0
5 11.2 -21.4
6 -41.6 6.0
7 29.2 10.2
8 14.5 -22.1
9 -28.7 4.0
10 -5.6 -14.0
11 -35.6 -7.7
12 -32.1 -3.3
13 -10.7 0.7
14 7.8 7.6
15 4.0 -13.6
16 -22.6 -23.5
17 -7.0 -16.6
18 28.1 -6.5
19 16.8 -0.5
20 18.5 21.2
EOF
